&CONTROL
  calculation = 'relax'
  restart_mode='restart',
  etot_conv_thr =   2.7000000000d-04
  forc_conv_thr =   1.0000000000d-04
  outdir = './out/'
  prefix = 'mos2'
  pseudo_dir = './pseudo/'
  tprnfor = .true.
  tstress = .true.
  verbosity = 'high'
/
&SYSTEM
  degauss =   1.4699723600d-02
  ecutrho =  240
  ecutwfc =   60
  ibrav = 0
  nat = 27
  nosym = .false.
  nspin = 2
  ntyp = 3
  vdw_corr = 'DFT-D'
  occupations = 'smearing'
  smearing = 'cold'
  starting_magnetization(1) =   3.5714285714d-01
  starting_magnetization(2) =   1.0000000000d-01
/
&ELECTRONS
  conv_thr =   5.4000000000d-09
  electron_maxstep = 80
  mixing_beta =   4.0000000000d-01
/
&IONS
  ion_dynamics = 'bfgs',
/
&CELL
 
/
ATOMIC_SPECIES
Mo     95.96  Mo.pbe-spn-kjpaw_psl.1.0.0.UPF
S      32.065 S.pbe-n-kjpaw_psl.1.0.0.UPF
Pd     106.42 Pd.pbe-n-kjpaw_psl.1.0.0.UPF
ATOMIC_POSITIONS (crystal)
Mo            0.1111114325        0.2222261983        0.4215073004
S             0.2222247486        0.1111140409        0.3817413774
S             0.2222247219        0.1111106943        0.4612737832
Mo            0.1111093114        0.5555563224        0.4215072271
S             0.2222236465        0.4444472929        0.3817409665
S             0.2222237282        0.4444441230        0.4612740962
Mo            0.1111114325        0.8888885675        0.4215073004
S             0.2222236465        0.7777796868        0.3817409665
S             0.2222237282        0.7777762718        0.4612740962
Mo            0.4444470151        0.2222251742        0.4215073096
S             0.5555570198        0.1111140398        0.3817408430
S             0.5555569305        0.1111105274        0.4612742836
Pd            0.4444436776        0.5555563224        0.4215072271
S             0.5555570198        0.4444463136        0.3817408430
S             0.5555569305        0.4444430695        0.4612742836
Mo            0.4444436776        0.8888906886        0.4215072271
S             0.5555560405        0.7777796868        0.3817409665
S             0.5555558770        0.7777762718        0.4612740962
Mo            0.7777748258        0.2222251742        0.4215073096
S             0.8888892924        0.1111140409        0.3817413774
S             0.8888893057        0.1111106943        0.4612737832
Mo            0.7777748258        0.5555529849        0.4215073096
S             0.8888892935        0.4444463136        0.3817408430
S             0.8888894726        0.4444430695        0.4612742836
Mo            0.7777738017        0.8888885675        0.4215073004
S             0.8888892924        0.7777785847        0.3817413774
S             0.8888893057        0.7777752781        0.4612737832

K_POINTS automatic
5 5 1 0 0 0
CELL_PARAMETERS (angstrom)
   9.575770493   0.000000000   0.000000000
  -4.787885247   8.292860508   0.000000000
   0.000000000  -0.000000000  39.159775000

