    &CONTROL
    calculation = 'relax'
    restart_mode = 'from_scratch'
    prefix = 'ZnS_110'
    nstep=500,
    pseudo_dir = '.'
    outdir = './temp'
   
/
&SYSTEM
    ibrav = 0
    nat = 34
    ntyp = 4
    ecutwfc = 60
!    ecutrho = 400
    occupations = 'smearing'
    smearing = 'mv'
    degauss = 0.007
/
&ELECTRONS
diagonalization='david'
    electron_maxstep = 150
    mixing_mode = 'local-TF'
    mixing_beta = 0.2
    conv_thr =  1.0d-6
/
&IONS
/
&CELL
    
/
ATOMIC_SPECIES
    Zn  65.38  Zn.pbe-dnl-kjpaw_psl.1.0.0.UPF
    S   32.06  S.pbe-n-kjpaw_psl.1.0.0.UPF
    Fe 55.845  Fe.pbe-spn-kjpaw_psl.1.0.0.UPF
    H   1.008      H.pbe-kjpaw_psl.1.0.0.UPF
ATOMIC_POSITIONS angstrom
Zn       0.000000000   0.292989050   8.332766170    0   0   0
Zn       3.820347600   0.292988540   8.332764800    0   0   0
Zn       1.910173120   2.619373990   9.729554040    0   0   0
Zn       5.730522080   2.619373990   9.729554040    0   0   0
S        7.640695200   3.987710500   9.867023530    0   0   0
S        1.910173620   1.372083360   7.758043420    0   0   0
S        3.820347600   3.987711610   9.867023300    0   0   0
S        5.730521580   1.372083360   7.758043420    0   0   0
Zn       3.820347600  -0.052488200  11.806209530    0   0   0
Zn       0.000000000  -0.052487450  11.806206720    0   0   0
Zn       5.730521290   2.648261110  13.666913340    0   0   0
Zn       1.910173910   2.648261110  13.666913340    0   0   0
S        3.820347600   4.009049400  13.722667710    0   0   0
S        5.730520580   1.314949970  11.736335200    0   0   0
S        0.000000000   4.009051280  13.722666550    0   0   0
S        1.910174620   1.314949970  11.736335200    0   0   0
Zn       0.000000000  -0.050408920  15.666137970    0   0   0
Zn       3.820347600  -0.050408660  15.666139170    0   0   0
Zn       1.910238705   2.722075293  17.495889679
Zn       5.732640117   2.556454942  17.600792654
S       -0.040057372   3.998748323  17.604606501
S        1.910173860   1.310390190  15.610382310    0   0   0
S        3.862936401   3.996668402  17.601639398
S        5.730521340   1.310390190  15.610382310    0   0   0
Zn       3.834430464  -0.104137654  19.579496436
Zn      -0.005648861  -0.101949576  19.582211648
Zn       5.733974727   3.159326324  21.069913987
Zn       1.908669939   2.431714071  21.450599801
S        3.672328419   3.989517604  21.688430907
S        5.734676339   1.293106971  19.616055881
S        0.150051837   3.989932054  21.699870520
S        1.917445698   1.275638141  19.347390304
Fe       1.910534016  -0.082863549  21.294173049
H        1.894608141   0.988018727  22.447385052
 

          

CELL_PARAMETERS angstrom
 7.64069519700000 0.00000000000000 0.00000000000000
0.00000000000000 5.39732954900000 0.00000000000000
0.00000000000000 0.00000000000000 29.33304999100000

K_POINTS automatic
    5 5 1 0 0 0

